local_stuff/loop_inv_stuff/loop_inv_backup/repo/boogie/105.out
STDOUT:
boogie/105.bpl(12,9): Error: this loop invariant could not be proved on entry
Execution trace:
    boogie/105.bpl(9,11): anon0

Boogie program verifier finished with 0 verified, 1 error


STDERR:
